Instance name: /mnt/c/Users/ORG/CLionProjects/uMV-FSTSP/Murray_Chu_2015_test_data/FSTSP/FSTSP_10_customer_problems/20140810T123437v12

drone speed: 0.6 miles/minute
uav non-eligible customer: 10 
Printing number of nodes: 11

Set parameter Threads to value 20
Gurobi Optimizer version 11.0.0 build v11.0.0rc2 (linux64 - "Ubuntu 22.04.3 LTS")

CPU model: 13th Gen Intel(R) Core(TM) i5-13500, instruction set [SSE2|AVX|AVX2]
Thread count: 10 physical cores, 20 logical processors, using up to 20 threads

Optimize a model with 6191 rows, 1825 columns and 197592 nonzeros
Model fingerprint: 0xdaf95a54
Variable types: 11 continuous, 1814 integer (1814 binary)
Coefficient statistics:
  Matrix range     [4e-01, 2e+01]
  Objective range  [8e-01, 2e+01]
  Bounds range     [1e+00, 1e+00]
  RHS range        [1e+00, 8e+00]
Found heuristic solution: objective 137.6454206
Presolve removed 479 rows and 731 columns
Presolve time: 0.43s
Presolved: 5712 rows, 1094 columns, 164355 nonzeros
Variable types: 9 continuous, 1085 integer (1085 binary)

Root relaxation: objective 5.096503e+01, 4295 iterations, 0.26 seconds (0.77 work units)

    Nodes    |    Current Node    |     Objective Bounds      |     Work
 Expl Unexpl |  Obj  Depth IntInf | Incumbent    BestBd   Gap | It/Node Time

     0     0   50.96503    0  150  137.64542   50.96503  63.0%     -    0s
H    0     0                     127.0026763   50.96503  59.9%     -    0s
H    0     0                      90.4129395   50.96503  43.6%     -    0s
     0     0   51.92362    0  168   90.41294   51.92362  42.6%     -    1s
H    0     0                      85.7405264   53.39485  37.7%     -    1s
     0     0   53.39485    0  167   85.74053   53.39485  37.7%     -    1s
     0     0   55.72855    0  186   85.74053   55.72855  35.0%     -    1s
H    0     0                      61.5913140   55.72855  9.52%     -    1s
     0     0   55.83271    0  183   61.59131   55.83271  9.35%     -    1s
     0     0   55.83271    0  193   61.59131   55.83271  9.35%     -    1s
     0     0   55.83271    0  193   61.59131   55.83271  9.35%     -    1s
     0     0   55.91690    0  206   61.59131   55.91690  9.21%     -    1s
     0     0   55.95125    0  204   61.59131   55.95125  9.16%     -    1s
     0     0   56.11248    0  203   61.59131   56.11248  8.90%     -    2s
     0     0   56.20489    0  220   61.59131   56.20489  8.75%     -    2s
H    0     0                      57.2830479   56.20489  1.88%     -    2s
     0     0   56.27312    0  217   57.28305   56.27312  1.76%     -    2s
     0     0   56.27312    0  217   57.28305   56.27312  1.76%     -    2s
     0     2   56.27312    0  215   57.28305   56.27312  1.76%     -    2s
H   42    17                      57.0011217   56.27312  1.28%   176    3s
H   48    17                      56.8492581   56.27312  1.01%   164    3s

Cutting planes:
  Gomory: 4
  Cover: 2
  Clique: 16
  MIR: 5
  StrongCG: 4
  Zero half: 26
  RLT: 6

Explored 111 nodes (19218 simplex iterations) in 3.98 seconds (8.36 work units)
Thread count was 20 (of 20 available processors)

Solution count 8: 56.8493 57.0011 57.283 ... 137.645

Optimal solution found (tolerance 1.00e-04)
Best objective 5.684925808068e+01, best bound 5.684925808068e+01, gap 0.0000%
